n_boats=60;
n_periods=18;
capacity=[6,2,11,10,12,15,7,16,5,4,3,14,3,10,14,9,15,7,12,4,15,12,2,16,11,1,1,16,6,2,1,9,13,6,2,6,6,9,15,3,15,14,6,5,15,12,7,3,4,6,5,14,2,9,5,11,2,6,13,4];
crew=[3,1,4,6,2,7,1,8,1,2,1,3,1,5,5,1,5,4,6,2,9,3,1,5,4,1,1,4,3,1,1,3,5,2,1,3,1,2,5,1,4,2,3,2,5,2,1,1,1,3,2,8,1,3,1,3,1,1,2,1];
